param site := 3;
param market := 5;
param fixed_cost := 1 400 2 250	3 300 ;
param demand:= 1 75 2 90 3 81 4 26 5 57;
param dsum := 329;
param shipping_cost:
     1  2  3  4  5  :=
1	4 7 3 12 15
2	13 11 17 9 19
3	8 12 10 7 5;

